
Gurobi 8.1.1 (mac64, Python) logging started Tue Sep 17 15:29:17 2019

Academic license - for non-commercial use only
Optimize a model with 3 rows, 3 columns and 6 nonzeros
Coefficient statistics:
  Matrix range     [1e+00, 3e+00]
  Objective range  [2e+00, 3e+00]
  Bounds range     [0e+00, 0e+00]
  RHS range        [2e+00, 1e+01]
Presolve removed 3 rows and 3 columns
Presolve time: 0.01s
Presolve: All rows and columns removed
Iteration    Objective       Primal Inf.    Dual Inf.      Time
       0   -6.0000000e+00   0.000000e+00   0.000000e+00      0s

Solved in 0 iterations and 0.01 seconds
Optimal objective -6.000000000e+00

Gurobi 8.1.1 (mac64, Python) logging started Tue Sep 17 20:49:42 2019

Academic license - for non-commercial use only
Optimize a model with 3 rows, 3 columns and 3 nonzeros
Coefficient statistics:
  Matrix range     [1e+00, 2e+02]
  Objective range  [5e+00, 1e+02]
  Bounds range     [0e+00, 0e+00]
  RHS range        [1e+03, 4e+04]
Presolve removed 2 rows and 0 columns
Presolve time: 0.01s

Solved in 0 iterations and 0.01 seconds
Infeasible or unbounded model
